wr=69;
nProviders=20;

cost_worker=[ 85 135 61 66 76 149 72 74 111 89 61 127 140 82 104 90 119 92 75 86 ];
available_workers=[ 31 10 35 43 35 27 50 11 30 36 47 44 25 50 30 26 29 10 28 38 ];
cost_contract=[ 948 853 2222 2938 3228 2858 2547 2514 3195 2562 2698 2798 1453 2895 3125 3117 2981 3285 1941 2293 ];
country=[ 3 19 3 7 17 7 14 1 17 20 12 14 7 5 17 3 8 10 8 10 ];
cost_1=5;
cost_2=7;
cost_3=150;
